
Gurobi 11.0.3 (linux64) logging started Mon Aug 25 12:57:14 2025

Set parameter LogFile to value "/home/yihong/Coding/OR_SUC/SUC_epstheta_results_bigM100000_thread4/case24_ieee_rts_theta0.1_epsilon0.2_gurobi_seed50000_num_gen100_N_WDR50_load_scaling_factor1_ori_eps_T4quadra_cost_bc1.03.txt"
Set parameter TimeLimit to value 3600
Gurobi Optimizer version 11.0.3 build v11.0.3rc0 (linux64 - "Ubuntu 20.04.6 LTS")

CPU model: AMD EPYC 7532 32-Core Processor, instruction set [SSE2|AVX|AVX2]
Thread count: 64 physical cores, 128 logical processors, using up to 4 threads

Academic license 2399124 - for non-commercial use only - registered to yi___@ed.ac.uk
Optimize a model with 10688 rows, 5011 columns and 386358 nonzeros
Model fingerprint: 0x5438120b
Model has 400 quadratic constraints
Variable types: 4611 continuous, 400 integer (400 binary)
Coefficient statistics:
  Matrix range     [3e-04, 3e+03]
  QMatrix range    [2e-03, 8e-03]
  QLMatrix range   [2e-01, 6e+01]
  Objective range  [1e+00, 1e+00]
  Bounds range     [1e+00, 1e+00]
  RHS range        [1e+00, 8e+03]
Presolve removed 9158 rows and 2310 columns
Presolve time: 0.11s
Presolved: 1530 rows, 2701 columns, 12458 nonzeros
Presolved model has 400 quadratic constraint(s)
Variable types: 2301 continuous, 400 integer (400 binary)

Root relaxation: objective 4.176223e+03, 985 iterations, 0.02 seconds (0.02 work units)

    Nodes    |    Current Node    |     Objective Bounds      |     Work
 Expl Unexpl |  Obj  Depth IntInf | Incumbent    BestBd   Gap | It/Node Time

     0     0 4176.22316    0    4          - 4176.22316      -     -    0s
     0     0 5040.94680    0  200          - 5040.94680      -     -    0s
     0     0 59862.5511    0  143          - 59862.5511      -     -    0s
     0     0 61429.1091    0  144          - 61429.1091      -     -    0s
     0     0 66619.0835    0   63          - 66619.0835      -     -    0s
     0     0 66620.9809    0   63          - 66620.9809      -     -    0s
     0     0 66625.6885    0   47          - 66625.6885      -     -    0s
     0     0 66625.8627    0   48          - 66625.8627      -     -    0s
     0     0 66625.8627    0   48          - 66625.8627      -     -    0s
     0     2 66625.8722    0   48          - 66625.8722      -     -    1s
H   87    89                    66646.746710 66626.9870  0.03%   9.6    1s
*   87    89              22    66646.746710 66626.9870  0.03%   9.7    1s
H   89    89                    66642.812513 66626.9870  0.02%   9.7    1s
*   89    89              21    66642.812513 66626.9870  0.02%  10.1    1s
H   97    89                    66633.805236 66626.9870  0.01%  10.7    1s
*   97    89              25    66633.805236 66626.9870  0.01%  11.2    1s

Cutting planes:
  Gomory: 21
  Implied bound: 143
  MIR: 32
  Flow cover: 142

Explored 103 nodes (4531 simplex iterations) in 1.78 seconds (1.39 work units)
Thread count was 4 (of 128 available processors)

Solution count 4: 66633.8 66633.8 66642.8 66646.7 

Optimal solution found (tolerance 1.00e-03)
Warning: max constraint violation (7.3800e-08) exceeds tolerance
Best objective 6.663380523648e+04, best bound 6.662698704203e+04, gap 0.0102%

Gurobi 11.0.3 (linux64) logging started Mon Aug 25 12:57:16 2025

Set parameter LogFile to value "/home/yihong/Coding/OR_SUC/SUC_epstheta_results_bigM100000_thread4/case24_ieee_rts_theta0.1_epsilon0.2_gurobi_seed50000_num_gen100_N_WDR50_load_scaling_factor1_ori_eps_T4quadra_cost_bc1.03.txt"
Set parameter TimeLimit to value 3600
Gurobi Optimizer version 11.0.3 build v11.0.3rc0 (linux64 - "Ubuntu 20.04.6 LTS")

CPU model: AMD EPYC 7532 32-Core Processor, instruction set [SSE2|AVX|AVX2]
Thread count: 64 physical cores, 128 logical processors, using up to 4 threads

Academic license 2399124 - for non-commercial use only - registered to yi___@ed.ac.uk
Optimize a model with 22856 rows, 5012 columns and 1703251 nonzeros
Model fingerprint: 0x4e1b1eac
Model has 401 quadratic constraints
Variable types: 4612 continuous, 400 integer (400 binary)
Coefficient statistics:
  Matrix range     [3e-04, 3e+03]
  QMatrix range    [2e-03, 5e+01]
  QLMatrix range   [2e-01, 6e+01]
  Objective range  [1e+00, 1e+00]
  Bounds range     [2e-01, 1e+00]
  RHS range        [5e-02, 7e+04]
  QRHS range       [5e+00, 5e+00]
Presolve removed 6852 rows and 1939 columns
Presolve time: 1.64s
Presolved: 16406 rows, 3474 columns, 344709 nonzeros
Presolved model has 400 quadratic constraint(s)
Presolved model has 1 bilinear constraint(s)
Warning: Model contains variables with very large bounds participating
         in product terms.
         Presolve was not able to compute smaller bounds for these variables.
         Consider bounding these variables or reformulating the model.


Solving non-convex MIQCP

Variable types: 3070 continuous, 404 integer (404 binary)

Root relaxation: objective 0.000000e+00, 2009 iterations, 0.35 seconds (0.99 work units)

    Nodes    |    Current Node    |     Objective Bounds      |     Work
 Expl Unexpl |  Obj  Depth IntInf | Incumbent    BestBd   Gap | It/Node Time

     0     0    0.00000    0    1          -    0.00000      -     -    3s
H    0     0                       0.0533664    0.00000   100%     -  716s
H    0     0                       0.0326102    0.00000   100%     -  716s
H    0     0                       0.0282550    0.00000   100%     -  716s
H    0     0                       0.0269439    0.00000   100%     -  716s
H    0     0                       0.0254137    0.00000   100%     -  716s
H    0     0                       0.0254137    0.02491  2.00%     -  716s
H    0     0                       0.0251224    0.02491  0.86%     -  716s
H    0     0                       0.0251220    0.02491  0.86%     -  716s
H    0     0                       0.0251219    0.02491  0.86%     -  716s
H    0     0                       0.0251091    0.02491  0.81%     -  716s
H    0     0                       0.0251090    0.02491  0.81%     -  716s
H    0     0                       0.0251089    0.02491  0.81%     -  716s
H    0     0                       0.0250826    0.02491  0.70%     -  716s
H    0     0                       0.0250622    0.02491  0.62%     -  716s
H    0     0                       0.0250617    0.02491  0.62%     -  716s
H    0     0                       0.0249086    0.02491  0.01%     -  716s

Explored 1 nodes (2390 simplex iterations) in 716.78 seconds (320.54 work units)
Thread count was 4 (of 128 available processors)

Solution count 10: 0.0249086 0.0250617 0.0250622 ... 0.0251224

Optimal solution found (tolerance 1.00e-03)
Best objective 2.490864063999e-02, best bound 2.490661443200e-02, gap 0.0081%
